Maximize
  0.00680661072877786 Z_153_0_0 + 0.8333435774294889 Z_153_0_1
   + 0.00288274066751148 Z_153_0_2 + 0.00279169623113904 Z_153_0_3
   + 0.0541753749430828 Z_153_0_4 + 0.00953529074777796 Z_657_0_0
   + 0.00805524571010643 Z_657_0_1 + 0.4479438032345644 Z_657_0_2
   + 0.0166946525553227 Z_657_0_3 + 0.4177710077522286 Z_657_0_4
   + 0.001396430959609 Z_148_0_0 + 0.2611620963027161 Z_148_0_1
   + 9.0043220502063822e-04 Z_148_0_2 + 0.00713860872335213 Z_148_0_3
   + 0.6294024318093021 Z_148_0_4 + 0.0205105555842488 Z_222_0_0
   + 0.064640040552014 Z_222_0_1 + 0.030880898757285 Z_222_0_2
   + 0.1349897755425457 Z_222_0_3 + 0.6489787295639065 Z_222_0_4 + [
   0.3166927009292605 Z_153_0_0 * Z_148_0_0
   + 0.0666598655610809 Z_153_0_0 * Z_222_0_0
   + 0.3166927009292605 Z_153_0_1 * Z_148_0_1
   + 0.0666598655610809 Z_153_0_1 * Z_222_0_1
   + 0.3166927009292605 Z_153_0_2 * Z_148_0_2
   + 0.0666598655610809 Z_153_0_2 * Z_222_0_2
   + 0.3166927009292605 Z_153_0_3 * Z_148_0_3
   + 0.0666598655610809 Z_153_0_3 * Z_222_0_3
   + 0.3166927009292605 Z_153_0_4 * Z_148_0_4
   + 0.0666598655610809 Z_153_0_4 * Z_222_0_4 + 0.4 Z_657_0_0 * Z_148_0_0
   + 0.4 Z_657_0_1 * Z_148_0_1 + 0.4 Z_657_0_2 * Z_148_0_2
   + 0.4 Z_657_0_3 * Z_148_0_3 + 0.4 Z_657_0_4 * Z_148_0_4
   + 0.0632654460450661 Z_148_0_0 * Z_222_0_0
   + 0.0632654460450661 Z_148_0_1 * Z_222_0_1
   + 0.0632654460450661 Z_148_0_2 * Z_222_0_2
   + 0.0632654460450661 Z_148_0_3 * Z_222_0_3
   + 0.0632654460450661 Z_148_0_4 * Z_222_0_4 ] / 2 
Subject To
 constraint1_1530: Z_153_0_0 + Z_153_0_1 + Z_153_0_2 + Z_153_0_3
   + Z_153_0_4 <= 1
 constraint1_6570: Z_657_0_0 + Z_657_0_1 + Z_657_0_2 + Z_657_0_3
   + Z_657_0_4 <= 1
 constraint1_1480: Z_148_0_0 + Z_148_0_1 + Z_148_0_2 + Z_148_0_3
   + Z_148_0_4 <= 1
 constraint1_2220: Z_222_0_0 + Z_222_0_1 + Z_222_0_2 + Z_222_0_3
   + Z_222_0_4 <= 1
 constraint2_1920: <= 1
 constraint2_1921: <= 1
 constraint2_1922: <= 1
 constraint2_1923: <= 1
 constraint2_2880: <= 1
 constraint2_2881: <= 1
 constraint2_2882: <= 1
 constraint2_2883: <= 1
 constraint2_1530: Z_153_0_0 <= 1
 constraint2_1531: Z_153_0_1 <= 1
 constraint2_1532: Z_153_0_2 <= 1
 constraint2_1533: Z_153_0_3 <= 1
 constraint2_6570: Z_657_0_0 <= 1
 constraint2_6571: Z_657_0_1 <= 1
 constraint2_6572: Z_657_0_2 <= 1
 constraint2_6573: Z_657_0_3 <= 1
 constraint2_760: <= 1
 constraint2_761: <= 1
 constraint2_762: <= 1
 constraint2_763: <= 1
 constraint2_1480: Z_148_0_0 <= 1
 constraint2_1481: Z_148_0_1 <= 1
 constraint2_1482: Z_148_0_2 <= 1
 constraint2_1483: Z_148_0_3 <= 1
 constraint2_5090: <= 1
 constraint2_5091: <= 1
 constraint2_5092: <= 1
 constraint2_5093: <= 1
 constraint2_2220: Z_222_0_0 <= 1
 constraint2_2221: Z_222_0_1 <= 1
 constraint2_2222: Z_222_0_2 <= 1
 constraint2_2223: Z_222_0_3 <= 1
Bounds
Binaries
 Z_153_0_0 Z_153_0_1 Z_153_0_2 Z_153_0_3 Z_153_0_4 Z_657_0_0 Z_657_0_1
 Z_657_0_2 Z_657_0_3 Z_657_0_4 Z_148_0_0 Z_148_0_1 Z_148_0_2 Z_148_0_3
 Z_148_0_4 Z_222_0_0 Z_222_0_1 Z_222_0_2 Z_222_0_3 Z_222_0_4
End
